
Gurobi 12.0.2 (win64) logging started Wed Jan  7 20:52:25 2026

Set parameter LogFile to value "C:\Ioana\_uni\honours\slp\algorithm\Main_files\results\arachidonic_acid_metabolism_hepato\Task_005_Sample003_irr_gurobi.log"
Gurobi Optimizer version 12.0.2 build v12.0.2rc0 (win64 - Windows 11.0 (26100.2))

CPU model: Intel(R) Core(TM) Ultra 5 125H, instruction set [SSE2|AVX|AVX2]
Thread count: 14 physical cores, 18 logical processors, using up to 18 threads

Non-default parameters:
TimeLimit  2200

Optimize a model with 47236 rows, 34505 columns and 146715 nonzeros
Model fingerprint: 0xa7274c51
Variable types: 17256 continuous, 17249 integer (17249 binary)
Coefficient statistics:
  Matrix range     [1e-04, 8e+04]
  Objective range  [2e-05, 1e+01]
  Bounds range     [1e+00, 1e+03]
  RHS range        [1e+00, 1e+00]
Presolve removed 30839 rows and 21552 columns
Presolve time: 0.65s
Presolved: 16397 rows, 12953 columns, 54571 nonzeros
Variable types: 6409 continuous, 6544 integer (6544 binary)
Found heuristic solution: objective 28.1229598

Root relaxation: objective 1.754615e-03, 63 iterations, 0.05 seconds (0.01 work units)

    Nodes    |    Current Node    |     Objective Bounds      |     Work
 Expl Unexpl |  Obj  Depth IntInf | Incumbent    BestBd   Gap | It/Node Time

     0     0    0.00175    0    3   28.12296    0.00175   100%     -    0s
H    0     0                       1.7546148    0.00175   100%     -    0s
     0     0    1.75461    0    9    1.75461    1.75461  0.00%     -    1s

Cutting planes:
  Cover: 4
  MIR: 1
  Flow cover: 2
  Flow path: 1
  Relax-and-lift: 3

Explored 1 nodes (5257 simplex iterations) in 1.99 seconds (1.28 work units)
Thread count was 18 (of 18 available processors)

Solution count 2: 1.75461 28.123 

Optimal solution found (tolerance 1.00e-04)
Best objective 1.754614782156e+00, best bound 1.754614782156e+00, gap 0.0000%

Gurobi 12.0.2 (win64) logging started Thu Jan  8 10:26:37 2026

Set parameter LogFile to value "C:\Ioana\_uni\honours\slp\algorithm\Main_files\results\arachidonic_acid_metabolism_hepato\Task_005_Sample003_irr_gurobi.log"
Gurobi Optimizer version 12.0.2 build v12.0.2rc0 (win64 - Windows 11.0 (26100.2))

CPU model: Intel(R) Core(TM) Ultra 5 125H, instruction set [SSE2|AVX|AVX2]
Thread count: 14 physical cores, 18 logical processors, using up to 18 threads

Non-default parameters:
TimeLimit  2200

Optimize a model with 47236 rows, 34505 columns and 146715 nonzeros
Model fingerprint: 0xa7274c51
Variable types: 17256 continuous, 17249 integer (17249 binary)
Coefficient statistics:
  Matrix range     [1e-04, 8e+04]
  Objective range  [2e-05, 1e+01]
  Bounds range     [1e+00, 1e+03]
  RHS range        [1e+00, 1e+00]
Presolve removed 30839 rows and 21552 columns
Presolve time: 0.73s
Presolved: 16397 rows, 12953 columns, 54571 nonzeros
Variable types: 6409 continuous, 6544 integer (6544 binary)
Found heuristic solution: objective 28.1229598

Root relaxation: objective 1.754615e-03, 63 iterations, 0.03 seconds (0.01 work units)

    Nodes    |    Current Node    |     Objective Bounds      |     Work
 Expl Unexpl |  Obj  Depth IntInf | Incumbent    BestBd   Gap | It/Node Time

     0     0    0.00175    0    3   28.12296    0.00175   100%     -    0s
H    0     0                       1.7546148    0.00175   100%     -    0s
     0     0    1.75461    0    9    1.75461    1.75461  0.00%     -    2s

Cutting planes:
  Cover: 4
  MIR: 1
  Flow cover: 2
  Flow path: 1
  Relax-and-lift: 3

Explored 1 nodes (5257 simplex iterations) in 2.03 seconds (1.28 work units)
Thread count was 18 (of 18 available processors)

Solution count 2: 1.75461 28.123 

Optimal solution found (tolerance 1.00e-04)
Best objective 1.754614782156e+00, best bound 1.754614782156e+00, gap 0.0000%
